p tw 95 111
1 2
2 13
3 94
4 5
5 6
6 7
7 8
8 9
9 10
10 11
10 17
11 12
12 14
13 24
13 46
14 15
15 16
16 94
17 18
18 19
19 20
20 21
21 22
22 23
23 25
24 35
24 46
25 26
26 27
26 92
27 28
28 29
29 30
29 32
30 31
31 48
32 33
33 34
33 45
34 36
35 46
35 4
36 37
37 38
37 45
38 39
39 40
39 45
40 41
41 42
42 43
43 44
44 48
45 47
46 57
47 48
48 49
49 50
50 51
50 65
51 52
51 61
52 53
53 54
54 55
54 58
55 56
56 58
56 61
57 68
58 59
59 60
60 61
61 62
62 63
63 64
64 21
65 66
66 67
67 69
68 79
69 70
70 71
70 21
71 72
72 73
73 74
73 21
74 75
75 76
76 77
77 78
78 80
79 90
80 81
81 82
82 83
82 21
83 84
84 85
85 86
85 21
86 87
87 88
88 89
89 91
90 3
91 94
92 93
93 94
94 95
